(set-info :smt-lib-version 2.6)
(set-logic QF_FP)
(set-option :produce-models true)
(set-info :source |Random FP created by PyMPF|)
(set-info :license |https://www.gnu.org/licenses/gpl-3.0.html|)
(set-info :category random)
(set-info :status sat)
(declare-const x Float32)
(assert (= x (fp #b0 #b11111010 #b01110000001011001100101)))
;; x should be Float32(0x7D381665 [Rational(15293389392417640977552561792700383232), 15293389392417640977552561792700383232.000000])

(declare-const y Float32)
(assert (= y (fp #b0 #b00100101 #b10110001110100101010001)))
;; y should be Float32(0x12D8E951 [Rational(14215505, 10384593717069655257060992658440192), 0.000000])

(declare-const z Float32)
(assert (= z (fp #b1 #b11111111 #b00000000000000000000000)))
;; z should be Float32(-oo)

(declare-const result Float32)
(assert (= result (fp.fma RNA x y z)))
(assert (= result (fp #b1 #b11111111 #b00000000000000000000000)))
(check-sat)
(exit)
